benchmark/results/graph__10-1000-0.10-03_5/graph__10-1000-0.10-03_5_QuintonOs_Benders_sub.lp
\ This file has been generated by DOcplex
\ ENCODING=ISO-8859-1
\Problem name: Quinton Bounded Benders_dual_sub

Minimize
 obj: 0.003424657534 pi_nr_a0 + 0.001443001443 pi_nr_a1
      + 0.001102535832 pi_nr_a2 + 0.001915708812 pi_nr_a3
      + 0.001018329939 pi_nr_a4 + 0.001367989056 pi_nr_a5
      + 0.001650165017 pi_nr_a6 + 0.001041666667 pi_nr_a7
      + 0.001655629139 pi_nr_a8 + 0.000896860987 pi_nr_a9 + pi_p_a3_a1
      + pi_p_a7_a8 + pi_p_a2_a8 + pi_p_a3_a8 + 1307 pi_d_a0_a1_proc_2
      + 1307 pi_d_a0_a1_proc_0 + 2601 pi_d_a0_a1_proc_1 + 1282 pi_d_a1_a0_proc_2
      + 1282 pi_d_a1_a0_proc_0 + 2576 pi_d_a1_a0_proc_1 + 1307 pi_d_a0_a2_proc_2
      + 1307 pi_d_a0_a2_proc_0 + 1282 pi_d_a2_a0_proc_2 + 1282 pi_d_a2_a0_proc_0
      + 2601 pi_d_a0_a3_proc_2 + 1307 pi_d_a0_a3_proc_0 + 1307 pi_d_a0_a3_proc_1
      + 2576 pi_d_a3_a0_proc_2 + 1282 pi_d_a3_a0_proc_0 + 1282 pi_d_a3_a0_proc_1
      + 2588 pi_d_a0_a4_proc_2 + 2588 pi_d_a0_a4_proc_1 + 2589 pi_d_a4_a0_proc_2
      + pi_d_a4_a0_proc_0 + 2589 pi_d_a4_a0_proc_1 + 2601 pi_d_a0_a5_proc_2
      + 1307 pi_d_a0_a5_proc_0 + 1307 pi_d_a0_a5_proc_1 + 2576 pi_d_a5_a0_proc_2
      + 1282 pi_d_a5_a0_proc_0 + 1282 pi_d_a5_a0_proc_1 + 2588 pi_d_a0_a6_proc_2
      + 2588 pi_d_a0_a6_proc_1 + 2589 pi_d_a6_a0_proc_2 + pi_d_a6_a0_proc_0
      + 2589 pi_d_a6_a0_proc_1 + 1307 pi_d_a0_a7_proc_0 + 1307 pi_d_a0_a7_proc_1
      + 1282 pi_d_a7_a0_proc_0 + 1282 pi_d_a7_a0_proc_1 + 2589 pi_d_a0_a8_proc_2
      + pi_d_a0_a8_proc_0 + 2589 pi_d_a0_a8_proc_1 + 2588 pi_d_a8_a0_proc_2
      + 2588 pi_d_a8_a0_proc_1 + 1307 pi_d_a0_a9_proc_2 + 1307 pi_d_a0_a9_proc_0
      + 2601 pi_d_a0_a9_proc_1 + 1282 pi_d_a9_a0_proc_2 + 1282 pi_d_a9_a0_proc_0
      + 2576 pi_d_a9_a0_proc_1 + 2588 pi_d_a1_a2_proc_0 + pi_d_a2_a1_proc_2
      + 2589 pi_d_a2_a1_proc_0 + 1307 pi_d_a1_a3_proc_2 + 2601 pi_d_a1_a3_proc_0
      + 1307 pi_d_a1_a3_proc_1 + 1282 pi_d_a3_a1_proc_2 + 2576 pi_d_a3_a1_proc_0
      + 1282 pi_d_a3_a1_proc_1 + 1307 pi_d_a1_a4_proc_2 + 1307 pi_d_a1_a4_proc_0
      + 2601 pi_d_a1_a4_proc_1 + 1282 pi_d_a4_a1_proc_2 + 1282 pi_d_a4_a1_proc_0
      + 2576 pi_d_a4_a1_proc_1 + 1307 pi_d_a1_a5_proc_2 + 2601 pi_d_a1_a5_proc_0
      + 1307 pi_d_a1_a5_proc_1 + 1282 pi_d_a5_a1_proc_2 + 2576 pi_d_a5_a1_proc_0
      + 1282 pi_d_a5_a1_proc_1 + 1307 pi_d_a1_a6_proc_2 + 1307 pi_d_a1_a6_proc_0
      + 2601 pi_d_a1_a6_proc_1 + 1282 pi_d_a6_a1_proc_2 + 1282 pi_d_a6_a1_proc_0
      + 2576 pi_d_a6_a1_proc_1 + 2601 pi_d_a1_a7_proc_0 + 1307 pi_d_a1_a7_proc_1
      + 2576 pi_d_a7_a1_proc_0 + 1282 pi_d_a7_a1_proc_1 + 1307 pi_d_a1_a8_proc_2
      + 1307 pi_d_a1_a8_proc_0 + 2601 pi_d_a1_a8_proc_1 + 1282 pi_d_a8_a1_proc_2
      + 1282 pi_d_a8_a1_proc_0 + 2576 pi_d_a8_a1_proc_1 + 2588 pi_d_a1_a9_proc_0
      + 2588 pi_d_a1_a9_proc_1 + pi_d_a9_a1_proc_2 + 2589 pi_d_a9_a1_proc_0
      + 2589 pi_d_a9_a1_proc_1 + 1307 pi_d_a2_a3_proc_2 + 2601 pi_d_a2_a3_proc_0
      + 1282 pi_d_a3_a2_proc_2 + 2576 pi_d_a3_a2_proc_0 + 1307 pi_d_a2_a4_proc_2
      + 1307 pi_d_a2_a4_proc_0 + 1282 pi_d_a4_a2_proc_2 + 1282 pi_d_a4_a2_proc_0
      + 1282 pi_d_a2_a5_proc_2 + 2576 pi_d_a2_a5_proc_0 + 1307 pi_d_a5_a2_proc_2
      + 2601 pi_d_a5_a2_proc_0 + 1307 pi_d_a2_a6_proc_2 + 1307 pi_d_a2_a6_proc_0
      + 1282 pi_d_a6_a2_proc_2 + 1282 pi_d_a6_a2_proc_0 + 2601 pi_d_a2_a7_proc_0
      + 2576 pi_d_a7_a2_proc_0 + 1282 pi_d_a2_a8_proc_2 + 1282 pi_d_a2_a8_proc_0
      + 1307 pi_d_a8_a2_proc_2 + 1307 pi_d_a8_a2_proc_0 + 2588 pi_d_a2_a9_proc_0
      + pi_d_a9_a2_proc_2 + 2589 pi_d_a9_a2_proc_0 + 2601 pi_d_a3_a4_proc_2
      + 1307 pi_d_a3_a4_proc_0 + 1307 pi_d_a3_a4_proc_1 + 2576 pi_d_a4_a3_proc_2
      + 1282 pi_d_a4_a3_proc_0 + 1282 pi_d_a4_a3_proc_1 + 2589 pi_d_a3_a5_proc_2
      + 2589 pi_d_a3_a5_proc_0 + pi_d_a3_a5_proc_1 + 2588 pi_d_a5_a3_proc_2
      + 2588 pi_d_a5_a3_proc_0 + 2601 pi_d_a3_a6_proc_2 + 1307 pi_d_a3_a6_proc_0
      + 1307 pi_d_a3_a6_proc_1 + 2576 pi_d_a6_a3_proc_2 + 1282 pi_d_a6_a3_proc_0
      + 1282 pi_d_a6_a3_proc_1 + 2589 pi_d_a3_a7_proc_0 + pi_d_a3_a7_proc_1
      + 2588 pi_d_a7_a3_proc_0 + 2601 pi_d_a3_a8_proc_2 + 1307 pi_d_a3_a8_proc_0
      + 1307 pi_d_a3_a8_proc_1 + 2576 pi_d_a8_a3_proc_2 + 1282 pi_d_a8_a3_proc_0
      + 1282 pi_d_a8_a3_proc_1 + 1307 pi_d_a3_a9_proc_2 + 2601 pi_d_a3_a9_proc_0
      + 1307 pi_d_a3_a9_proc_1 + 1282 pi_d_a9_a3_proc_2 + 2576 pi_d_a9_a3_proc_0
      + 1282 pi_d_a9_a3_proc_1 + 2601 pi_d_a4_a5_proc_2 + 1307 pi_d_a4_a5_proc_0
      + 1307 pi_d_a4_a5_proc_1 + 2576 pi_d_a5_a4_proc_2 + 1282 pi_d_a5_a4_proc_0
      + 1282 pi_d_a5_a4_proc_1 + 2588 pi_d_a4_a6_proc_2 + 2588 pi_d_a4_a6_proc_1
      + 2589 pi_d_a6_a4_proc_2 + pi_d_a6_a4_proc_0 + 2589 pi_d_a6_a4_proc_1
      + 1307 pi_d_a4_a7_proc_0 + 1307 pi_d_a4_a7_proc_1 + 1282 pi_d_a7_a4_proc_0
      + 1282 pi_d_a7_a4_proc_1 + 2589 pi_d_a4_a8_proc_2 + pi_d_a4_a8_proc_0
      + 2589 pi_d_a4_a8_proc_1 + 2588 pi_d_a8_a4_proc_2 + 2588 pi_d_a8_a4_proc_1
      + 1307 pi_d_a4_a9_proc_2 + 1307 pi_d_a4_a9_proc_0 + 2601 pi_d_a4_a9_proc_1
      + 1282 pi_d_a9_a4_proc_2 + 1282 pi_d_a9_a4_proc_0 + 2576 pi_d_a9_a4_proc_1
      + 2601 pi_d_a5_a6_proc_2 + 1307 pi_d_a5_a6_proc_0 + 1307 pi_d_a5_a6_proc_1
      + 2576 pi_d_a6_a5_proc_2 + 1282 pi_d_a6_a5_proc_0 + 1282 pi_d_a6_a5_proc_1
      + 2588 pi_d_a5_a7_proc_0 + 2589 pi_d_a7_a5_proc_0 + pi_d_a7_a5_proc_1
      + 2601 pi_d_a5_a8_proc_2 + 1307 pi_d_a5_a8_proc_0 + 1307 pi_d_a5_a8_proc_1
      + 2576 pi_d_a8_a5_proc_2 + 1282 pi_d_a8_a5_proc_0 + 1282 pi_d_a8_a5_proc_1
      + 1282 pi_d_a5_a9_proc_2 + 2576 pi_d_a5_a9_proc_0 + 1282 pi_d_a5_a9_proc_1
      + 1307 pi_d_a9_a5_proc_2 + 2601 pi_d_a9_a5_proc_0 + 1307 pi_d_a9_a5_proc_1
      + 1307 pi_d_a6_a7_proc_0 + 1307 pi_d_a6_a7_proc_1 + 1282 pi_d_a7_a6_proc_0
      + 1282 pi_d_a7_a6_proc_1 + 2589 pi_d_a6_a8_proc_2 + pi_d_a6_a8_proc_0
      + 2589 pi_d_a6_a8_proc_1 + 2588 pi_d_a8_a6_proc_2 + 2588 pi_d_a8_a6_proc_1
      + 1307 pi_d_a6_a9_proc_2 + 1307 pi_d_a6_a9_proc_0 + 2601 pi_d_a6_a9_proc_1
      + 1282 pi_d_a9_a6_proc_2 + 1282 pi_d_a9_a6_proc_0 + 2576 pi_d_a9_a6_proc_1
      + 1307 pi_d_a7_a8_proc_0 + 1307 pi_d_a7_a8_proc_1 + 1282 pi_d_a8_a7_proc_0
      + 1282 pi_d_a8_a7_proc_1 + 2601 pi_d_a7_a9_proc_0 + 1307 pi_d_a7_a9_proc_1
      + 2576 pi_d_a9_a7_proc_0 + 1282 pi_d_a9_a7_proc_1 + 1307 pi_d_a8_a9_proc_2
      + 1307 pi_d_a8_a9_proc_0 + 2601 pi_d_a8_a9_proc_1 + 1282 pi_d_a9_a8_proc_2
      + 1282 pi_d_a9_a8_proc_0 + 2576 pi_d_a9_a8_proc_1 + pi_y2_a0_proc_0
      + pi_y2_a1_proc_2 + pi_y2_a2_proc_2 + pi_y2_a3_proc_1 + pi_y2_a4_proc_0
      + pi_y2_a5_proc_1 + pi_y2_a6_proc_0 + pi_y2_a7_proc_1 + pi_y2_a8_proc_0
      + pi_y2_a9_proc_2
Subject To
 c1: pi_nr_a0 + pi_nr_a1 + pi_nr_a2 + pi_nr_a3 + pi_nr_a4 + pi_nr_a5 + pi_nr_a6
     + pi_nr_a7 + pi_nr_a8 + pi_nr_a9 - pi_y1_a0 - pi_y1_a1 - pi_y1_a2
     - pi_y1_a3 - pi_y1_a4 - pi_y1_a5 - pi_y1_a6 - pi_y1_a7 - pi_y1_a8
     - pi_y1_a9 >= 1
 c2: - pi_p_a1_a0 + pi_p_a0_a4 + pi_d_a0_a1_proc_2 + pi_d_a0_a1_proc_0
     + pi_d_a0_a1_proc_1 - pi_d_a1_a0_proc_2 - pi_d_a1_a0_proc_0
     - pi_d_a1_a0_proc_1 + pi_d_a0_a2_proc_2 + pi_d_a0_a2_proc_0
     - pi_d_a2_a0_proc_2 - pi_d_a2_a0_proc_0 + pi_d_a0_a3_proc_2
     + pi_d_a0_a3_proc_0 + pi_d_a0_a3_proc_1 - pi_d_a3_a0_proc_2
     - pi_d_a3_a0_proc_0 - pi_d_a3_a0_proc_1 + pi_d_a0_a4_proc_2
     + pi_d_a0_a4_proc_0 + pi_d_a0_a4_proc_1 - pi_d_a4_a0_proc_2
     - pi_d_a4_a0_proc_0 - pi_d_a4_a0_proc_1 + pi_d_a0_a5_proc_2
     + pi_d_a0_a5_proc_0 + pi_d_a0_a5_proc_1 - pi_d_a5_a0_proc_2
     - pi_d_a5_a0_proc_0 - pi_d_a5_a0_proc_1 + pi_d_a0_a6_proc_2
     + pi_d_a0_a6_proc_0 + pi_d_a0_a6_proc_1 - pi_d_a6_a0_proc_2
     - pi_d_a6_a0_proc_0 - pi_d_a6_a0_proc_1 + pi_d_a0_a7_proc_0
     + pi_d_a0_a7_proc_1 - pi_d_a7_a0_proc_0 - pi_d_a7_a0_proc_1
     + pi_d_a0_a8_proc_2 + pi_d_a0_a8_proc_0 + pi_d_a0_a8_proc_1
     - pi_d_a8_a0_proc_2 - pi_d_a8_a0_proc_0 - pi_d_a8_a0_proc_1
     + pi_d_a0_a9_proc_2 + pi_d_a0_a9_proc_0 + pi_d_a0_a9_proc_1
     - pi_d_a9_a0_proc_2 - pi_d_a9_a0_proc_0 - pi_d_a9_a0_proc_1 >= 0
 c3: 292 pi_p_a0_a4 + 292 pi_d_a0_a1_proc_0 + 292 pi_d_a0_a2_proc_0
     + 292 pi_d_a0_a3_proc_0 + 292 pi_d_a0_a4_proc_0 + 292 pi_d_a0_a5_proc_0
     + 292 pi_d_a0_a6_proc_0 + 292 pi_d_a0_a7_proc_0 + 292 pi_d_a0_a8_proc_0
     + 292 pi_d_a0_a9_proc_0 + pi_y1_a0 + pi_y2_a0_proc_0 >= 0
 c4: 890 pi_p_a0_a4 + 890 pi_d_a0_a1_proc_1 + 890 pi_d_a0_a3_proc_1
     + 890 pi_d_a0_a4_proc_1 + 890 pi_d_a0_a5_proc_1 + 890 pi_d_a0_a6_proc_1
     + 890 pi_d_a0_a7_proc_1 + 890 pi_d_a0_a8_proc_1 + 890 pi_d_a0_a9_proc_1
     + pi_y1_a0 + pi_y2_a0_proc_1 >= 0
 c5: 949 pi_p_a0_a4 + 949 pi_d_a0_a1_proc_2 + 949 pi_d_a0_a2_proc_2
     + 949 pi_d_a0_a3_proc_2 + 949 pi_d_a0_a4_proc_2 + 949 pi_d_a0_a5_proc_2
     + 949 pi_d_a0_a6_proc_2 + 949 pi_d_a0_a8_proc_2 + 949 pi_d_a0_a9_proc_2
     + pi_y1_a0 + pi_y2_a0_proc_2 >= 0
 c6: pi_p_a1_a0 + pi_p_a1_a2 - pi_p_a3_a1 - pi_d_a0_a1_proc_2
     - pi_d_a0_a1_proc_0 - pi_d_a0_a1_proc_1 + pi_d_a1_a0_proc_2
     + pi_d_a1_a0_proc_0 + pi_d_a1_a0_proc_1 + pi_d_a1_a2_proc_2
     + pi_d_a1_a2_proc_0 - pi_d_a2_a1_proc_2 - pi_d_a2_a1_proc_0
     + pi_d_a1_a3_proc_2 + pi_d_a1_a3_proc_0 + pi_d_a1_a3_proc_1
     - pi_d_a3_a1_proc_2 - pi_d_a3_a1_proc_0 - pi_d_a3_a1_proc_1
     + pi_d_a1_a4_proc_2 + pi_d_a1_a4_proc_0 + pi_d_a1_a4_proc_1
     - pi_d_a4_a1_proc_2 - pi_d_a4_a1_proc_0 - pi_d_a4_a1_proc_1
     + pi_d_a1_a5_proc_2 + pi_d_a1_a5_proc_0 + pi_d_a1_a5_proc_1
     - pi_d_a5_a1_proc_2 - pi_d_a5_a1_proc_0 - pi_d_a5_a1_proc_1
     + pi_d_a1_a6_proc_2 + pi_d_a1_a6_proc_0 + pi_d_a1_a6_proc_1
     - pi_d_a6_a1_proc_2 - pi_d_a6_a1_proc_0 - pi_d_a6_a1_proc_1
     + pi_d_a1_a7_proc_0 + pi_d_a1_a7_proc_1 - pi_d_a7_a1_proc_0
     - pi_d_a7_a1_proc_1 + pi_d_a1_a8_proc_2 + pi_d_a1_a8_proc_0
     + pi_d_a1_a8_proc_1 - pi_d_a8_a1_proc_2 - pi_d_a8_a1_proc_0
     - pi_d_a8_a1_proc_1 + pi_d_a1_a9_proc_2 + pi_d_a1_a9_proc_0
     + pi_d_a1_a9_proc_1 - pi_d_a9_a1_proc_2 - pi_d_a9_a1_proc_0
     - pi_d_a9_a1_proc_1 >= 0
 c7: 973 pi_p_a1_a0 + 973 pi_p_a1_a2 + 973 pi_d_a1_a0_proc_0
     + 973 pi_d_a1_a2_proc_0 + 973 pi_d_a1_a3_proc_0 + 973 pi_d_a1_a4_proc_0
     + 973 pi_d_a1_a5_proc_0 + 973 pi_d_a1_a6_proc_0 + 973 pi_d_a1_a7_proc_0
     + 973 pi_d_a1_a8_proc_0 + 973 pi_d_a1_a9_proc_0 + pi_y1_a1
     + pi_y2_a1_proc_0 >= 0
 c8: 1137 pi_p_a1_a0 + 1137 pi_p_a1_a2 + 1137 pi_d_a1_a0_proc_1
     + 1137 pi_d_a1_a3_proc_1 + 1137 pi_d_a1_a4_proc_1 + 1137 pi_d_a1_a5_proc_1
     + 1137 pi_d_a1_a6_proc_1 + 1137 pi_d_a1_a7_proc_1 + 1137 pi_d_a1_a8_proc_1
     + 1137 pi_d_a1_a9_proc_1 + pi_y1_a1 + pi_y2_a1_proc_1 >= 0
 c9: 693 pi_p_a1_a0 + 693 pi_p_a1_a2 + 693 pi_d_a1_a0_proc_2
     + 693 pi_d_a1_a2_proc_2 + 693 pi_d_a1_a3_proc_2 + 693 pi_d_a1_a4_proc_2
     + 693 pi_d_a1_a5_proc_2 + 693 pi_d_a1_a6_proc_2 + 693 pi_d_a1_a8_proc_2
     + 693 pi_d_a1_a9_proc_2 + pi_y1_a1 + pi_y2_a1_proc_2 >= 0
 c10: - pi_p_a1_a2 + pi_p_a2_a5 + pi_p_a2_a8 - pi_d_a0_a2_proc_2
      - pi_d_a0_a2_proc_0 + pi_d_a2_a0_proc_2 + pi_d_a2_a0_proc_0
      - pi_d_a1_a2_proc_2 - pi_d_a1_a2_proc_0 + pi_d_a2_a1_proc_2
      + pi_d_a2_a1_proc_0 + pi_d_a2_a3_proc_2 + pi_d_a2_a3_proc_0
      - pi_d_a3_a2_proc_2 - pi_d_a3_a2_proc_0 + pi_d_a2_a4_proc_2
      + pi_d_a2_a4_proc_0 - pi_d_a4_a2_proc_2 - pi_d_a4_a2_proc_0
      + pi_d_a2_a5_proc_2 + pi_d_a2_a5_proc_0 - pi_d_a5_a2_proc_2
      - pi_d_a5_a2_proc_0 + pi_d_a2_a6_proc_2 + pi_d_a2_a6_proc_0
      - pi_d_a6_a2_proc_2 - pi_d_a6_a2_proc_0 + pi_d_a2_a7_proc_0
      - pi_d_a7_a2_proc_0 + pi_d_a2_a8_proc_2 + pi_d_a2_a8_proc_0
      - pi_d_a8_a2_proc_2 - pi_d_a8_a2_proc_0 + pi_d_a2_a9_proc_2
      + pi_d_a2_a9_proc_0 - pi_d_a9_a2_proc_2 - pi_d_a9_a2_proc_0 >= 0
 c11: 555 pi_p_a2_a5 + 555 pi_p_a2_a8 + 555 pi_d_a2_a0_proc_0
      + 555 pi_d_a2_a1_proc_0 + 555 pi_d_a2_a3_proc_0 + 555 pi_d_a2_a4_proc_0
      + 555 pi_d_a2_a5_proc_0 + 555 pi_d_a2_a6_proc_0 + 555 pi_d_a2_a7_proc_0
      + 555 pi_d_a2_a8_proc_0 + 555 pi_d_a2_a9_proc_0 + pi_y1_a2
      + pi_y2_a2_proc_0 >= 0
 c12: 907 pi_p_a2_a5 + 907 pi_p_a2_a8 + 907 pi_d_a2_a0_proc_2
      + 907 pi_d_a2_a1_proc_2 + 907 pi_d_a2_a3_proc_2 + 907 pi_d_a2_a4_proc_2
      + 907 pi_d_a2_a5_proc_2 + 907 pi_d_a2_a6_proc_2 + 907 pi_d_a2_a8_proc_2
      + 907 pi_d_a2_a9_proc_2 + pi_y1_a2 + pi_y2_a2_proc_2 >= 0
 c13: pi_p_a3_a1 - pi_p_a6_a3 + pi_p_a3_a8 - pi_p_a9_a3 - pi_d_a0_a3_proc_2
      - pi_d_a0_a3_proc_0 - pi_d_a0_a3_proc_1 + pi_d_a3_a0_proc_2
      + pi_d_a3_a0_proc_0 + pi_d_a3_a0_proc_1 - pi_d_a1_a3_proc_2
      - pi_d_a1_a3_proc_0 - pi_d_a1_a3_proc_1 + pi_d_a3_a1_proc_2
      + pi_d_a3_a1_proc_0 + pi_d_a3_a1_proc_1 - pi_d_a2_a3_proc_2
      - pi_d_a2_a3_proc_0 + pi_d_a3_a2_proc_2 + pi_d_a3_a2_proc_0
      + pi_d_a3_a4_proc_2 + pi_d_a3_a4_proc_0 + pi_d_a3_a4_proc_1
      - pi_d_a4_a3_proc_2 - pi_d_a4_a3_proc_0 - pi_d_a4_a3_proc_1
      + pi_d_a3_a5_proc_2 + pi_d_a3_a5_proc_0 + pi_d_a3_a5_proc_1
      - pi_d_a5_a3_proc_2 - pi_d_a5_a3_proc_0 - pi_d_a5_a3_proc_1
      + pi_d_a3_a6_proc_2 + pi_d_a3_a6_proc_0 + pi_d_a3_a6_proc_1
      - pi_d_a6_a3_proc_2 - pi_d_a6_a3_proc_0 - pi_d_a6_a3_proc_1
      + pi_d_a3_a7_proc_0 + pi_d_a3_a7_proc_1 - pi_d_a7_a3_proc_0
      - pi_d_a7_a3_proc_1 + pi_d_a3_a8_proc_2 + pi_d_a3_a8_proc_0
      + pi_d_a3_a8_proc_1 - pi_d_a8_a3_proc_2 - pi_d_a8_a3_proc_0
      - pi_d_a8_a3_proc_1 + pi_d_a3_a9_proc_2 + pi_d_a3_a9_proc_0
      + pi_d_a3_a9_proc_1 - pi_d_a9_a3_proc_2 - pi_d_a9_a3_proc_0
      - pi_d_a9_a3_proc_1 >= 0
 c14: 843 pi_p_a3_a1 + 843 pi_p_a3_a8 + 843 pi_d_a3_a0_proc_0
      + 843 pi_d_a3_a1_proc_0 + 843 pi_d_a3_a2_proc_0 + 843 pi_d_a3_a4_proc_0
      + 843 pi_d_a3_a5_proc_0 + 843 pi_d_a3_a6_proc_0 + 843 pi_d_a3_a7_proc_0
      + 843 pi_d_a3_a8_proc_0 + 843 pi_d_a3_a9_proc_0 + pi_y1_a3
      + pi_y2_a3_proc_0 >= 0
 c15: 522 pi_p_a3_a1 + 522 pi_p_a3_a8 + 522 pi_d_a3_a0_proc_1
      + 522 pi_d_a3_a1_proc_1 + 522 pi_d_a3_a4_proc_1 + 522 pi_d_a3_a5_proc_1
      + 522 pi_d_a3_a6_proc_1 + 522 pi_d_a3_a7_proc_1 + 522 pi_d_a3_a8_proc_1
      + 522 pi_d_a3_a9_proc_1 + pi_y1_a3 + pi_y2_a3_proc_1 >= 0
 c16: 1235 pi_p_a3_a1 + 1235 pi_p_a3_a8 + 1235 pi_d_a3_a0_proc_2
      + 1235 pi_d_a3_a1_proc_2 + 1235 pi_d_a3_a2_proc_2 + 1235 pi_d_a3_a4_proc_2
      + 1235 pi_d_a3_a5_proc_2 + 1235 pi_d_a3_a6_proc_2 + 1235 pi_d_a3_a8_proc_2
      + 1235 pi_d_a3_a9_proc_2 + pi_y1_a3 + pi_y2_a3_proc_2 >= 0
 c17: - pi_p_a0_a4 + pi_p_a4_a9 - pi_d_a0_a4_proc_2 - pi_d_a0_a4_proc_0
      - pi_d_a0_a4_proc_1 + pi_d_a4_a0_proc_2 + pi_d_a4_a0_proc_0
      + pi_d_a4_a0_proc_1 - pi_d_a1_a4_proc_2 - pi_d_a1_a4_proc_0
      - pi_d_a1_a4_proc_1 + pi_d_a4_a1_proc_2 + pi_d_a4_a1_proc_0
      + pi_d_a4_a1_proc_1 - pi_d_a2_a4_proc_2 - pi_d_a2_a4_proc_0
      + pi_d_a4_a2_proc_2 + pi_d_a4_a2_proc_0 - pi_d_a3_a4_proc_2
      - pi_d_a3_a4_proc_0 - pi_d_a3_a4_proc_1 + pi_d_a4_a3_proc_2
      + pi_d_a4_a3_proc_0 + pi_d_a4_a3_proc_1 + pi_d_a4_a5_proc_2
      + pi_d_a4_a5_proc_0 + pi_d_a4_a5_proc_1 - pi_d_a5_a4_proc_2
      - pi_d_a5_a4_proc_0 - pi_d_a5_a4_proc_1 + pi_d_a4_a6_proc_2
      + pi_d_a4_a6_proc_0 + pi_d_a4_a6_proc_1 - pi_d_a6_a4_proc_2
      - pi_d_a6_a4_proc_0 - pi_d_a6_a4_proc_1 + pi_d_a4_a7_proc_0
      + pi_d_a4_a7_proc_1 - pi_d_a7_a4_proc_0 - pi_d_a7_a4_proc_1
      + pi_d_a4_a8_proc_2 + pi_d_a4_a8_proc_0 + pi_d_a4_a8_proc_1
      - pi_d_a8_a4_proc_2 - pi_d_a8_a4_proc_0 - pi_d_a8_a4_proc_1
      + pi_d_a4_a9_proc_2 + pi_d_a4_a9_proc_0 + pi_d_a4_a9_proc_1
      - pi_d_a9_a4_proc_2 - pi_d_a9_a4_proc_0 - pi_d_a9_a4_proc_1 >= 0
 c18: 982 pi_p_a4_a9 + 982 pi_d_a4_a0_proc_0 + 982 pi_d_a4_a1_proc_0
      + 982 pi_d_a4_a2_proc_0 + 982 pi_d_a4_a3_proc_0 + 982 pi_d_a4_a5_proc_0
      + 982 pi_d_a4_a6_proc_0 + 982 pi_d_a4_a7_proc_0 + 982 pi_d_a4_a8_proc_0
      + 982 pi_d_a4_a9_proc_0 + pi_y1_a4 + pi_y2_a4_proc_0 >= 0
 c19: 1069 pi_p_a4_a9 + 1069 pi_d_a4_a0_proc_1 + 1069 pi_d_a4_a1_proc_1
      + 1069 pi_d_a4_a3_proc_1 + 1069 pi_d_a4_a5_proc_1 + 1069 pi_d_a4_a6_proc_1
      + 1069 pi_d_a4_a7_proc_1 + 1069 pi_d_a4_a8_proc_1 + 1069 pi_d_a4_a9_proc_1
      + pi_y1_a4 + pi_y2_a4_proc_1 >= 0
 c20: 965 pi_p_a4_a9 + 965 pi_d_a4_a0_proc_2 + 965 pi_d_a4_a1_proc_2
      + 965 pi_d_a4_a2_proc_2 + 965 pi_d_a4_a3_proc_2 + 965 pi_d_a4_a5_proc_2
      + 965 pi_d_a4_a6_proc_2 + 965 pi_d_a4_a8_proc_2 + 965 pi_d_a4_a9_proc_2
      + pi_y1_a4 + pi_y2_a4_proc_2 >= 0
 c21: - pi_p_a2_a5 - pi_d_a0_a5_proc_2 - pi_d_a0_a5_proc_0 - pi_d_a0_a5_proc_1
      + pi_d_a5_a0_proc_2 + pi_d_a5_a0_proc_0 + pi_d_a5_a0_proc_1
      - pi_d_a1_a5_proc_2 - pi_d_a1_a5_proc_0 - pi_d_a1_a5_proc_1
      + pi_d_a5_a1_proc_2 + pi_d_a5_a1_proc_0 + pi_d_a5_a1_proc_1
      - pi_d_a2_a5_proc_2 - pi_d_a2_a5_proc_0 + pi_d_a5_a2_proc_2
      + pi_d_a5_a2_proc_0 - pi_d_a3_a5_proc_2 - pi_d_a3_a5_proc_0
      - pi_d_a3_a5_proc_1 + pi_d_a5_a3_proc_2 + pi_d_a5_a3_proc_0
      + pi_d_a5_a3_proc_1 - pi_d_a4_a5_proc_2 - pi_d_a4_a5_proc_0
      - pi_d_a4_a5_proc_1 + pi_d_a5_a4_proc_2 + pi_d_a5_a4_proc_0
      + pi_d_a5_a4_proc_1 + pi_d_a5_a6_proc_2 + pi_d_a5_a6_proc_0
      + pi_d_a5_a6_proc_1 - pi_d_a6_a5_proc_2 - pi_d_a6_a5_proc_0
      - pi_d_a6_a5_proc_1 + pi_d_a5_a7_proc_0 + pi_d_a5_a7_proc_1
      - pi_d_a7_a5_proc_0 - pi_d_a7_a5_proc_1 + pi_d_a5_a8_proc_2
      + pi_d_a5_a8_proc_0 + pi_d_a5_a8_proc_1 - pi_d_a8_a5_proc_2
      - pi_d_a8_a5_proc_0 - pi_d_a8_a5_proc_1 + pi_d_a5_a9_proc_2
      + pi_d_a5_a9_proc_0 + pi_d_a5_a9_proc_1 - pi_d_a9_a5_proc_2
      - pi_d_a9_a5_proc_0 - pi_d_a9_a5_proc_1 >= 0
 c22: 1205 pi_d_a5_a0_proc_0 + 1205 pi_d_a5_a1_proc_0 + 1205 pi_d_a5_a2_proc_0
      + 1205 pi_d_a5_a3_proc_0 + 1205 pi_d_a5_a4_proc_0 + 1205 pi_d_a5_a6_proc_0
      + 1205 pi_d_a5_a7_proc_0 + 1205 pi_d_a5_a8_proc_0 + 1205 pi_d_a5_a9_proc_0
      + pi_y1_a5 + pi_y2_a5_proc_0 >= 0
 c23: 731 pi_d_a5_a0_proc_1 + 731 pi_d_a5_a1_proc_1 + 731 pi_d_a5_a3_proc_1
      + 731 pi_d_a5_a4_proc_1 + 731 pi_d_a5_a6_proc_1 + 731 pi_d_a5_a7_proc_1
      + 731 pi_d_a5_a8_proc_1 + 731 pi_d_a5_a9_proc_1 + pi_y1_a5
      + pi_y2_a5_proc_1 >= 0
 c24: 804 pi_d_a5_a0_proc_2 + 804 pi_d_a5_a1_proc_2 + 804 pi_d_a5_a2_proc_2
      + 804 pi_d_a5_a3_proc_2 + 804 pi_d_a5_a4_proc_2 + 804 pi_d_a5_a6_proc_2
      + 804 pi_d_a5_a8_proc_2 + 804 pi_d_a5_a9_proc_2 + pi_y1_a5
      + pi_y2_a5_proc_2 >= 0
 c25: pi_p_a6_a3 - pi_p_a7_a6 - pi_d_a0_a6_proc_2 - pi_d_a0_a6_proc_0
      - pi_d_a0_a6_proc_1 + pi_d_a6_a0_proc_2 + pi_d_a6_a0_proc_0
      + pi_d_a6_a0_proc_1 - pi_d_a1_a6_proc_2 - pi_d_a1_a6_proc_0
      - pi_d_a1_a6_proc_1 + pi_d_a6_a1_proc_2 + pi_d_a6_a1_proc_0
      + pi_d_a6_a1_proc_1 - pi_d_a2_a6_proc_2 - pi_d_a2_a6_proc_0
      + pi_d_a6_a2_proc_2 + pi_d_a6_a2_proc_0 - pi_d_a3_a6_proc_2
      - pi_d_a3_a6_proc_0 - pi_d_a3_a6_proc_1 + pi_d_a6_a3_proc_2
      + pi_d_a6_a3_proc_0 + pi_d_a6_a3_proc_1 - pi_d_a4_a6_proc_2
      - pi_d_a4_a6_proc_0 - pi_d_a4_a6_proc_1 + pi_d_a6_a4_proc_2
      + pi_d_a6_a4_proc_0 + pi_d_a6_a4_proc_1 - pi_d_a5_a6_proc_2
      - pi_d_a5_a6_proc_0 - pi_d_a5_a6_proc_1 + pi_d_a6_a5_proc_2
      + pi_d_a6_a5_proc_0 + pi_d_a6_a5_proc_1 + pi_d_a6_a7_proc_0
      + pi_d_a6_a7_proc_1 - pi_d_a7_a6_proc_0 - pi_d_a7_a6_proc_1
      + pi_d_a6_a8_proc_2 + pi_d_a6_a8_proc_0 + pi_d_a6_a8_proc_1
      - pi_d_a8_a6_proc_2 - pi_d_a8_a6_proc_0 - pi_d_a8_a6_proc_1
      + pi_d_a6_a9_proc_2 + pi_d_a6_a9_proc_0 + pi_d_a6_a9_proc_1
      - pi_d_a9_a6_proc_2 - pi_d_a9_a6_proc_0 - pi_d_a9_a6_proc_1 >= 0
 c26: 606 pi_p_a6_a3 + 606 pi_d_a6_a0_proc_0 + 606 pi_d_a6_a1_proc_0
      + 606 pi_d_a6_a2_proc_0 + 606 pi_d_a6_a3_proc_0 + 606 pi_d_a6_a4_proc_0
      + 606 pi_d_a6_a5_proc_0 + 606 pi_d_a6_a7_proc_0 + 606 pi_d_a6_a8_proc_0
      + 606 pi_d_a6_a9_proc_0 + pi_y1_a6 + pi_y2_a6_proc_0 >= 0
 c27: 829 pi_p_a6_a3 + 829 pi_d_a6_a0_proc_1 + 829 pi_d_a6_a1_proc_1
      + 829 pi_d_a6_a3_proc_1 + 829 pi_d_a6_a4_proc_1 + 829 pi_d_a6_a5_proc_1
      + 829 pi_d_a6_a7_proc_1 + 829 pi_d_a6_a8_proc_1 + 829 pi_d_a6_a9_proc_1
      + pi_y1_a6 + pi_y2_a6_proc_1 >= 0
 c28: 956 pi_p_a6_a3 + 956 pi_d_a6_a0_proc_2 + 956 pi_d_a6_a1_proc_2
      + 956 pi_d_a6_a2_proc_2 + 956 pi_d_a6_a3_proc_2 + 956 pi_d_a6_a4_proc_2
      + 956 pi_d_a6_a5_proc_2 + 956 pi_d_a6_a8_proc_2 + 956 pi_d_a6_a9_proc_2
      + pi_y1_a6 + pi_y2_a6_proc_2 >= 0
 c29: pi_p_a7_a6 - pi_p_a8_a7 + pi_p_a7_a8 - pi_p_a9_a7 - pi_d_a0_a7_proc_0
      - pi_d_a0_a7_proc_1 + pi_d_a7_a0_proc_0 + pi_d_a7_a0_proc_1
      - pi_d_a1_a7_proc_0 - pi_d_a1_a7_proc_1 + pi_d_a7_a1_proc_0
      + pi_d_a7_a1_proc_1 - pi_d_a2_a7_proc_0 + pi_d_a7_a2_proc_0
      - pi_d_a3_a7_proc_0 - pi_d_a3_a7_proc_1 + pi_d_a7_a3_proc_0
      + pi_d_a7_a3_proc_1 - pi_d_a4_a7_proc_0 - pi_d_a4_a7_proc_1
      + pi_d_a7_a4_proc_0 + pi_d_a7_a4_proc_1 - pi_d_a5_a7_proc_0
      - pi_d_a5_a7_proc_1 + pi_d_a7_a5_proc_0 + pi_d_a7_a5_proc_1
      - pi_d_a6_a7_proc_0 - pi_d_a6_a7_proc_1 + pi_d_a7_a6_proc_0
      + pi_d_a7_a6_proc_1 + pi_d_a7_a8_proc_0 + pi_d_a7_a8_proc_1
      - pi_d_a8_a7_proc_0 - pi_d_a8_a7_proc_1 + pi_d_a7_a9_proc_0
      + pi_d_a7_a9_proc_1 - pi_d_a9_a7_proc_0 - pi_d_a9_a7_proc_1 >= 0
 c30: 1290 pi_p_a7_a6 + 1290 pi_p_a7_a8 + 1290 pi_d_a7_a0_proc_0
      + 1290 pi_d_a7_a1_proc_0 + 1290 pi_d_a7_a2_proc_0 + 1290 pi_d_a7_a3_proc_0
      + 1290 pi_d_a7_a4_proc_0 + 1290 pi_d_a7_a5_proc_0 + 1290 pi_d_a7_a6_proc_0
      + 1290 pi_d_a7_a8_proc_0 + 1290 pi_d_a7_a9_proc_0 + pi_y1_a7
      + pi_y2_a7_proc_0 >= 0
 c31: 960 pi_p_a7_a6 + 960 pi_p_a7_a8 + 960 pi_d_a7_a0_proc_1
      + 960 pi_d_a7_a1_proc_1 + 960 pi_d_a7_a3_proc_1 + 960 pi_d_a7_a4_proc_1
      + 960 pi_d_a7_a5_proc_1 + 960 pi_d_a7_a6_proc_1 + 960 pi_d_a7_a8_proc_1
      + 960 pi_d_a7_a9_proc_1 + pi_y1_a7 + pi_y2_a7_proc_1 >= 0
 c32: pi_p_a8_a7 - pi_p_a7_a8 - pi_p_a2_a8 - pi_p_a3_a8 - pi_d_a0_a8_proc_2
      - pi_d_a0_a8_proc_0 - pi_d_a0_a8_proc_1 + pi_d_a8_a0_proc_2
      + pi_d_a8_a0_proc_0 + pi_d_a8_a0_proc_1 - pi_d_a1_a8_proc_2
      - pi_d_a1_a8_proc_0 - pi_d_a1_a8_proc_1 + pi_d_a8_a1_proc_2
      + pi_d_a8_a1_proc_0 + pi_d_a8_a1_proc_1 - pi_d_a2_a8_proc_2
      - pi_d_a2_a8_proc_0 + pi_d_a8_a2_proc_2 + pi_d_a8_a2_proc_0
      - pi_d_a3_a8_proc_2 - pi_d_a3_a8_proc_0 - pi_d_a3_a8_proc_1
      + pi_d_a8_a3_proc_2 + pi_d_a8_a3_proc_0 + pi_d_a8_a3_proc_1
      - pi_d_a4_a8_proc_2 - pi_d_a4_a8_proc_0 - pi_d_a4_a8_proc_1
      + pi_d_a8_a4_proc_2 + pi_d_a8_a4_proc_0 + pi_d_a8_a4_proc_1
      - pi_d_a5_a8_proc_2 - pi_d_a5_a8_proc_0 - pi_d_a5_a8_proc_1
      + pi_d_a8_a5_proc_2 + pi_d_a8_a5_proc_0 + pi_d_a8_a5_proc_1
      - pi_d_a6_a8_proc_2 - pi_d_a6_a8_proc_0 - pi_d_a6_a8_proc_1
      + pi_d_a8_a6_proc_2 + pi_d_a8_a6_proc_0 + pi_d_a8_a6_proc_1
      - pi_d_a7_a8_proc_0 - pi_d_a7_a8_proc_1 + pi_d_a8_a7_proc_0
      + pi_d_a8_a7_proc_1 + pi_d_a8_a9_proc_2 + pi_d_a8_a9_proc_0
      + pi_d_a8_a9_proc_1 - pi_d_a9_a8_proc_2 - pi_d_a9_a8_proc_0
      - pi_d_a9_a8_proc_1 >= 0
 c33: 604 pi_p_a8_a7 + 604 pi_d_a8_a0_proc_0 + 604 pi_d_a8_a1_proc_0
      + 604 pi_d_a8_a2_proc_0 + 604 pi_d_a8_a3_proc_0 + 604 pi_d_a8_a4_proc_0
      + 604 pi_d_a8_a5_proc_0 + 604 pi_d_a8_a6_proc_0 + 604 pi_d_a8_a7_proc_0
      + 604 pi_d_a8_a9_proc_0 + pi_y1_a8 + pi_y2_a8_proc_0 >= 0
 c34: 1075 pi_p_a8_a7 + 1075 pi_d_a8_a0_proc_1 + 1075 pi_d_a8_a1_proc_1
      + 1075 pi_d_a8_a3_proc_1 + 1075 pi_d_a8_a4_proc_1 + 1075 pi_d_a8_a5_proc_1
      + 1075 pi_d_a8_a6_proc_1 + 1075 pi_d_a8_a7_proc_1 + 1075 pi_d_a8_a9_proc_1
      + pi_y1_a8 + pi_y2_a8_proc_1 >= 0
 c35: 460 pi_p_a8_a7 + 460 pi_d_a8_a0_proc_2 + 460 pi_d_a8_a1_proc_2
      + 460 pi_d_a8_a2_proc_2 + 460 pi_d_a8_a3_proc_2 + 460 pi_d_a8_a4_proc_2
      + 460 pi_d_a8_a5_proc_2 + 460 pi_d_a8_a6_proc_2 + 460 pi_d_a8_a9_proc_2
      + pi_y1_a8 + pi_y2_a8_proc_2 >= 0
 c36: - pi_p_a4_a9 + pi_p_a9_a7 + pi_p_a9_a3 - pi_d_a0_a9_proc_2
      - pi_d_a0_a9_proc_0 - pi_d_a0_a9_proc_1 + pi_d_a9_a0_proc_2
      + pi_d_a9_a0_proc_0 + pi_d_a9_a0_proc_1 - pi_d_a1_a9_proc_2
      - pi_d_a1_a9_proc_0 - pi_d_a1_a9_proc_1 + pi_d_a9_a1_proc_2
      + pi_d_a9_a1_proc_0 + pi_d_a9_a1_proc_1 - pi_d_a2_a9_proc_2
      - pi_d_a2_a9_proc_0 + pi_d_a9_a2_proc_2 + pi_d_a9_a2_proc_0
      - pi_d_a3_a9_proc_2 - pi_d_a3_a9_proc_0 - pi_d_a3_a9_proc_1
      + pi_d_a9_a3_proc_2 + pi_d_a9_a3_proc_0 + pi_d_a9_a3_proc_1
      - pi_d_a4_a9_proc_2 - pi_d_a4_a9_proc_0 - pi_d_a4_a9_proc_1
      + pi_d_a9_a4_proc_2 + pi_d_a9_a4_proc_0 + pi_d_a9_a4_proc_1
      - pi_d_a5_a9_proc_2 - pi_d_a5_a9_proc_0 - pi_d_a5_a9_proc_1
      + pi_d_a9_a5_proc_2 + pi_d_a9_a5_proc_0 + pi_d_a9_a5_proc_1
      - pi_d_a6_a9_proc_2 - pi_d_a6_a9_proc_0 - pi_d_a6_a9_proc_1
      + pi_d_a9_a6_proc_2 + pi_d_a9_a6_proc_0 + pi_d_a9_a6_proc_1
      - pi_d_a7_a9_proc_0 - pi_d_a7_a9_proc_1 + pi_d_a9_a7_proc_0
      + pi_d_a9_a7_proc_1 - pi_d_a8_a9_proc_2 - pi_d_a8_a9_proc_0
      - pi_d_a8_a9_proc_1 + pi_d_a9_a8_proc_2 + pi_d_a9_a8_proc_0
      + pi_d_a9_a8_proc_1 >= 0
 c37: 1142 pi_p_a9_a7 + 1142 pi_p_a9_a3 + 1142 pi_d_a9_a0_proc_0
      + 1142 pi_d_a9_a1_proc_0 + 1142 pi_d_a9_a2_proc_0 + 1142 pi_d_a9_a3_proc_0
      + 1142 pi_d_a9_a4_proc_0 + 1142 pi_d_a9_a5_proc_0 + 1142 pi_d_a9_a6_proc_0
      + 1142 pi_d_a9_a7_proc_0 + 1142 pi_d_a9_a8_proc_0 + pi_y1_a9
      + pi_y2_a9_proc_0 >= 0
 c38: 1294 pi_p_a9_a7 + 1294 pi_p_a9_a3 + 1294 pi_d_a9_a0_proc_1
      + 1294 pi_d_a9_a1_proc_1 + 1294 pi_d_a9_a3_proc_1 + 1294 pi_d_a9_a4_proc_1
      + 1294 pi_d_a9_a5_proc_1 + 1294 pi_d_a9_a6_proc_1 + 1294 pi_d_a9_a7_proc_1
      + 1294 pi_d_a9_a8_proc_1 + pi_y1_a9 + pi_y2_a9_proc_1 >= 0
 c39: 1115 pi_p_a9_a7 + 1115 pi_p_a9_a3 + 1115 pi_d_a9_a0_proc_2
      + 1115 pi_d_a9_a1_proc_2 + 1115 pi_d_a9_a2_proc_2 + 1115 pi_d_a9_a3_proc_2
      + 1115 pi_d_a9_a4_proc_2 + 1115 pi_d_a9_a5_proc_2 + 1115 pi_d_a9_a6_proc_2
      + 1115 pi_d_a9_a8_proc_2 + pi_y1_a9 + pi_y2_a9_proc_2 >= 0

Bounds
       pi_y1_a0 Free
       pi_y1_a1 Free
       pi_y1_a2 Free
       pi_y1_a3 Free
       pi_y1_a4 Free
       pi_y1_a5 Free
       pi_y1_a6 Free
       pi_y1_a7 Free
       pi_y1_a8 Free
       pi_y1_a9 Free
End
