benchmark/results/graph__10-1000-0.10-03_5/graph__10-1000-0.10-03_5_QuintonOs_Benders_sub.txt
solution for: Quinton Bounded Benders_dual_sub
objective: 0.000193424
status: OPTIMAL_SOLUTION(2)
pi_p_a1_a0=0.000
pi_p_a3_a1=0.000
pi_p_a0_a4=0.000
pi_p_a6_a3=0.000
pi_p_a7_a6=0.000
pi_p_a4_a9=0.000
pi_p_a9_a7=0.000
pi_y1_a0=-0.056
pi_y1_a1=-0.134
pi_y1_a3=-0.101
pi_y1_a4=-0.190
pi_y1_a6=-0.117
pi_y1_a7=-0.186
pi_y1_a9=-0.216
pi_y2_a4_proc_2=0.003
